************************************************************************
file with basedata            : ma14_.bas
initial value random generator: 1423242501
************************************************************************
projects                      :  1
jobs (incl. supersource/sink ):  12
horizon                       :  74
RESOURCES
  - renewable                 :  2   R
  - nonrenewable              :  2   N
  - doubly constrained        :  0   D
************************************************************************
PROJECT INFORMATION:
pronr.  #jobs rel.date duedate tardcost  MPM-Time
    1     10      0       17        5       17
************************************************************************
PRECEDENCE RELATIONS:
jobnr.    #modes  #successors   successors
   0        1          3           1   2   3
   1        3          3           4   7   8
   2        3          1           5
   3        3          2           6   8
   4        3          2           6   9
   5        3          2           8  10
   6        3          1          10
   7        3          1           9
   8        3          1          11
   9        3          1          11
  10        3          1          11
  11        1          0        
************************************************************************
REQUESTS/DURATIONS:
jobnr. mode duration  R 1  R 2  R 3  R 4  E(W 1)  E(W 2)
------------------------------------------------------------------------
  0      1     0       0    0    0    0     0       0
  1      1     5       7    3    7   10    50      85
  2      1     1       9    4    2   10    13      12
  3      1     8       4    8    9    4    96      104
  4      1     3       9   10    6    2    57      24
  5      1     3       9    8    2    7    51      27
  6      1     1       8    8    7    3    16      10
  7      1     1       8    2    9    9    10      18
  8      1     6       7    8    4    9    90      78
  9      1     4       6    7   10    6    52      64
 10      1     8       7    6   10    6    104      128
 11      1     0       0    0    0    0     0       0
************************************************************************
RESOURCEAVAILABILITIES:
  R 1  R 2
   45   94
************************************************************************
RESOURCE LIMITS:
jobnr.  l(R 1)  u(R 1)  l(R 2)  u(R 2)
------------------------------------------------------------------------
  0        0       0       0       0
  1        6      10       9      17
  2        7      13       6      12
  3        6      12       7      13
  4       10      19       4       8
  5        9      17       5       9
  6        8      16       6      10
  7        5      10      10      18
  8        8      15       7      13
  9        7      13       8      16
 10        7      13       8      16
 11        0       0       0       0
************************************************************************
SCENARIOS:
------------------------------------------------------------------------
RESOURCE k = 1
s = 1: (0, 55, 16, 89, 58, 46, 14, 13, 94, 79, 87, 0)
s = 2: (0, 47, 10, 52, 47, 49, 18, 8, 174, 79, 151, 0)
s = 3: (0, 59, 11, 127, 66, 83, 21, 9, 65, 72, 85, 0)
s = 4: (0, 46, 12, 122, 46, 45, 16, 7, 59, 50, 162, 0)
s = 5: (0, 71, 11, 96, 70, 46, 12, 16, 68, 55, 57, 0)
s = 6: (0, 63, 13, 62, 51, 58, 22, 10, 60, 51, 66, 0)
s = 7: (0, 45, 17, 89, 36, 43, 17, 9, 85, 50, 61, 0)
s = 8: (0, 30, 17, 115, 37, 62, 20, 12, 82, 54, 135, 0)
s = 9: (0, 71, 10, 81, 44, 49, 16, 8, 90, 42, 121, 0)
s = 10: (0, 41, 13, 100, 97, 50, 14, 17, 141, 56, 90, 0)
s = 11: (0, 38, 20, 136, 84, 35, 24, 8, 48, 51, 116, 0)
s = 12: (0, 34, 24, 120, 85, 31, 12, 13, 68, 55, 78, 0)
s = 13: (0, 55, 14, 93, 69, 49, 18, 10, 53, 63, 139, 0)
s = 14: (0, 39, 18, 76, 56, 72, 11, 11, 88, 42, 117, 0)
s = 15: (0, 56, 16, 104, 67, 51, 22, 9, 70, 45, 99, 0)
s = 16: (0, 79, 15, 132, 64, 73, 18, 13, 73, 41, 99, 0)
s = 17: (0, 52, 15, 94, 68, 34, 21, 13, 71, 50, 78, 0)
s = 18: (0, 40, 10, 96, 58, 55, 14, 10, 78, 48, 76, 0)
s = 19: (0, 76, 10, 59, 63, 66, 18, 17, 82, 40, 74, 0)
s = 20: (0, 73, 14, 74, 46, 63, 20, 6, 102, 55, 103, 0)
s = 21: (0, 45, 14, 59, 50, 50, 13, 13, 63, 60, 129, 0)
s = 22: (0, 51, 9, 95, 54, 57, 18, 9, 92, 48, 53, 0)
s = 23: (0, 54, 16, 131, 67, 53, 13, 7, 58, 55, 102, 0)
s = 24: (0, 63, 22, 68, 55, 58, 23, 6, 82, 31, 125, 0)
s = 25: (0, 67, 13, 89, 36, 39, 31, 7, 161, 55, 88, 0)
s = 26: (0, 31, 13, 58, 42, 30, 15, 8, 90, 100, 135, 0)
s = 27: (0, 34, 13, 92, 70, 28, 15, 6, 132, 55, 109, 0)
s = 28: (0, 48, 21, 130, 72, 50, 15, 15, 75, 47, 97, 0)
s = 29: (0, 39, 12, 126, 41, 42, 21, 15, 85, 59, 142, 0)
s = 30: (0, 38, 21, 86, 62, 70, 19, 13, 72, 49, 87, 0)
s = 31: (0, 54, 12, 169, 64, 29, 21, 8, 77, 63, 60, 0)
s = 32: (0, 45, 9, 112, 45, 56, 11, 7, 126, 52, 93, 0)
s = 33: (0, 48, 11, 94, 42, 35, 13, 11, 129, 102, 105, 0)
s = 34: (0, 39, 12, 78, 45, 37, 9, 11, 78, 37, 105, 0)
s = 35: (0, 34, 9, 105, 78, 63, 12, 13, 102, 37, 58, 0)
s = 36: (0, 55, 17, 72, 59, 63, 20, 8, 56, 40, 150, 0)
s = 37: (0, 44, 10, 132, 36, 41, 19, 9, 127, 39, 94, 0)
s = 38: (0, 55, 9, 91, 50, 73, 19, 8, 61, 53, 59, 0)
s = 39: (0, 39, 12, 67, 93, 46, 17, 10, 63, 51, 77, 0)
s = 40: (0, 33, 15, 136, 59, 33, 12, 8, 102, 63, 124, 0)
s = 41: (0, 27, 13, 91, 34, 68, 10, 13, 49, 48, 67, 0)
s = 42: (0, 35, 10, 71, 56, 49, 10, 10, 118, 55, 95, 0)
s = 43: (0, 40, 20, 93, 46, 53, 19, 9, 66, 73, 129, 0)
s = 44: (0, 33, 16, 76, 75, 35, 12, 7, 79, 58, 120, 0)
s = 45: (0, 82, 13, 75, 84, 62, 17, 7, 105, 77, 154, 0)
s = 46: (0, 52, 10, 101, 59, 41, 15, 12, 73, 37, 89, 0)
s = 47: (0, 37, 14, 90, 55, 67, 21, 11, 55, 30, 150, 0)
s = 48: (0, 63, 16, 153, 55, 49, 16, 11, 91, 80, 86, 0)
s = 49: (0, 76, 16, 87, 63, 84, 11, 15, 93, 47, 60, 0)
s = 50: (0, 40, 11, 125, 35, 50, 11, 12, 70, 50, 68, 0)
s = 51: (0, 38, 20, 132, 96, 78, 15, 8, 64, 31, 118, 0)
s = 52: (0, 72, 11, 50, 89, 70, 21, 6, 110, 45, 102, 0)
s = 53: (0, 76, 18, 110, 63, 70, 18, 14, 60, 34, 105, 0)
s = 54: (0, 34, 11, 108, 74, 61, 14, 11, 55, 63, 108, 0)
s = 55: (0, 48, 8, 120, 41, 55, 21, 7, 60, 54, 131, 0)
s = 56: (0, 33, 13, 80, 45, 41, 28, 11, 62, 66, 175, 0)
s = 57: (0, 52, 12, 103, 74, 44, 15, 15, 86, 38, 68, 0)
s = 58: (0, 50, 11, 99, 54, 68, 20, 7, 99, 44, 69, 0)
s = 59: (0, 40, 15, 80, 52, 35, 10, 13, 74, 43, 91, 0)
s = 60: (0, 52, 12, 101, 76, 41, 16, 18, 62, 39, 70, 0)
s = 61: (0, 66, 19, 100, 39, 74, 13, 10, 70, 45, 87, 0)
s = 62: (0, 37, 16, 54, 68, 52, 18, 14, 68, 82, 81, 0)
s = 63: (0, 44, 21, 133, 65, 31, 15, 10, 79, 53, 82, 0)
s = 64: (0, 32, 13, 87, 44, 38, 15, 18, 134, 48, 193, 0)
s = 65: (0, 72, 8, 119, 64, 54, 15, 12, 95, 54, 118, 0)
s = 66: (0, 90, 10, 180, 45, 50, 11, 9, 121, 76, 85, 0)
s = 67: (0, 66, 18, 65, 64, 42, 18, 10, 90, 66, 130, 0)
s = 68: (0, 44, 11, 89, 33, 52, 29, 9, 112, 58, 78, 0)
s = 69: (0, 58, 12, 71, 74, 45, 17, 14, 63, 61, 118, 0)
s = 70: (0, 39, 13, 113, 93, 32, 15, 7, 105, 49, 130, 0)
s = 71: (0, 79, 16, 125, 83, 64, 16, 8, 55, 39, 184, 0)
s = 72: (0, 52, 26, 82, 46, 40, 23, 11, 75, 51, 127, 0)
s = 73: (0, 37, 19, 80, 39, 50, 12, 11, 71, 36, 113, 0)
s = 74: (0, 49, 9, 116, 54, 30, 13, 11, 70, 82, 132, 0)
s = 75: (0, 44, 10, 157, 80, 51, 14, 7, 73, 69, 55, 0)
s = 76: (0, 70, 13, 70, 51, 36, 24, 16, 61, 54, 99, 0)
s = 77: (0, 58, 18, 77, 91, 36, 13, 6, 104, 54, 82, 0)
s = 78: (0, 77, 14, 91, 35, 57, 12, 10, 110, 60, 146, 0)
s = 79: (0, 53, 9, 112, 36, 50, 14, 6, 107, 63, 77, 0)
s = 80: (0, 44, 13, 67, 50, 74, 13, 9, 112, 35, 71, 0)
s = 81: (0, 57, 15, 78, 37, 58, 12, 9, 66, 55, 123, 0)
s = 82: (0, 46, 11, 56, 59, 58, 29, 15, 98, 34, 144, 0)
s = 83: (0, 37, 9, 111, 59, 37, 16, 9, 52, 39, 82, 0)
s = 84: (0, 53, 11, 66, 60, 37, 10, 8, 76, 46, 100, 0)
s = 85: (0, 38, 17, 112, 57, 35, 16, 8, 116, 46, 71, 0)
s = 86: (0, 55, 17, 90, 52, 47, 12, 15, 83, 55, 68, 0)
s = 87: (0, 61, 9, 127, 55, 48, 13, 12, 92, 41, 117, 0)
s = 88: (0, 80, 11, 138, 64, 54, 16, 13, 126, 78, 81, 0)
s = 89: (0, 77, 13, 115, 40, 72, 10, 8, 76, 46, 85, 0)
s = 90: (0, 56, 13, 98, 70, 38, 26, 12, 55, 62, 96, 0)
s = 91: (0, 59, 16, 139, 45, 43, 16, 9, 111, 51, 124, 0)
s = 92: (0, 52, 9, 77, 55, 44, 13, 12, 77, 72, 102, 0)
s = 93: (0, 57, 10, 107, 52, 53, 22, 9, 69, 30, 81, 0)
s = 94: (0, 39, 9, 71, 61, 36, 21, 16, 135, 64, 90, 0)
s = 95: (0, 52, 16, 106, 86, 41, 19, 9, 65, 39, 105, 0)
s = 96: (0, 34, 19, 87, 89, 40, 24, 8, 83, 32, 77, 0)
s = 97: (0, 39, 10, 129, 39, 46, 11, 7, 86, 63, 121, 0)
s = 98: (0, 33, 15, 113, 32, 40, 18, 7, 56, 42, 147, 0)
s = 99: (0, 41, 10, 148, 52, 68, 11, 7, 86, 86, 122, 0)
s = 100: (0, 50, 16, 100, 65, 37, 17, 8, 69, 44, 65, 0)
s = 101: (0, 45, 16, 67, 44, 31, 13, 12, 85, 45, 87, 0)
s = 102: (0, 30, 15, 104, 49, 53, 26, 14, 80, 53, 85, 0)
s = 103: (0, 41, 12, 112, 44, 59, 9, 12, 86, 51, 92, 0)
s = 104: (0, 57, 10, 106, 51, 73, 31, 10, 127, 67, 93, 0)
s = 105: (0, 28, 12, 112, 53, 31, 11, 16, 77, 50, 173, 0)
s = 106: (0, 32, 15, 60, 31, 31, 13, 10, 78, 48, 96, 0)
s = 107: (0, 69, 14, 120, 79, 49, 11, 7, 102, 40, 73, 0)
s = 108: (0, 50, 15, 76, 54, 50, 19, 13, 93, 56, 90, 0)
s = 109: (0, 83, 16, 96, 58, 47, 18, 12, 55, 72, 86, 0)
s = 110: (0, 51, 15, 90, 62, 49, 22, 9, 129, 58, 116, 0)
s = 111: (0, 57, 12, 74, 65, 52, 17, 10, 64, 36, 75, 0)
s = 112: (0, 40, 16, 98, 67, 66, 22, 14, 56, 68, 109, 0)
s = 113: (0, 39, 10, 101, 53, 74, 19, 13, 138, 56, 153, 0)
s = 114: (0, 35, 12, 117, 59, 44, 19, 8, 81, 67, 118, 0)
s = 115: (0, 36, 15, 65, 81, 57, 15, 8, 109, 60, 80, 0)
s = 116: (0, 50, 15, 72, 45, 67, 14, 9, 96, 60, 72, 0)
s = 117: (0, 59, 15, 67, 38, 64, 15, 9, 72, 44, 80, 0)
s = 118: (0, 42, 18, 119, 72, 59, 21, 6, 122, 28, 82, 0)
s = 119: (0, 37, 14, 126, 63, 43, 17, 13, 66, 35, 165, 0)
s = 120: (0, 49, 9, 106, 47, 40, 14, 10, 75, 46, 102, 0)
s = 121: (0, 56, 14, 103, 50, 35, 16, 12, 161, 48, 164, 0)
s = 122: (0, 45, 17, 100, 60, 46, 21, 11, 53, 50, 120, 0)
s = 123: (0, 35, 10, 111, 43, 47, 30, 7, 86, 76, 108, 0)
s = 124: (0, 62, 11, 126, 67, 37, 17, 9, 126, 44, 98, 0)
s = 125: (0, 64, 10, 179, 80, 69, 20, 13, 75, 69, 104, 0)
s = 126: (0, 28, 19, 84, 72, 70, 22, 8, 58, 61, 115, 0)
s = 127: (0, 48, 9, 96, 50, 47, 17, 13, 111, 36, 77, 0)
s = 128: (0, 62, 16, 114, 38, 51, 16, 8, 90, 58, 145, 0)
s = 129: (0, 44, 11, 151, 94, 54, 18, 6, 94, 48, 137, 0)
s = 130: (0, 51, 15, 85, 48, 43, 12, 13, 63, 57, 86, 0)
s = 131: (0, 69, 19, 109, 46, 51, 13, 9, 78, 55, 113, 0)
s = 132: (0, 33, 16, 74, 61, 36, 17, 11, 99, 64, 81, 0)
s = 133: (0, 52, 14, 81, 82, 64, 13, 7, 56, 37, 97, 0)
s = 134: (0, 72, 16, 111, 52, 87, 15, 16, 103, 52, 124, 0)
s = 135: (0, 62, 13, 66, 44, 67, 16, 16, 67, 59, 142, 0)
s = 136: (0, 55, 24, 131, 87, 36, 13, 11, 78, 42, 116, 0)
s = 137: (0, 71, 12, 79, 94, 47, 16, 7, 66, 35, 104, 0)
s = 138: (0, 54, 15, 131, 45, 57, 13, 7, 117, 29, 106, 0)
s = 139: (0, 47, 19, 110, 69, 44, 10, 19, 164, 40, 148, 0)
s = 140: (0, 50, 14, 87, 63, 54, 18, 7, 100, 50, 136, 0)
s = 141: (0, 27, 16, 140, 101, 60, 15, 15, 75, 41, 66, 0)
s = 142: (0, 38, 10, 87, 38, 54, 12, 7, 91, 43, 101, 0)
s = 143: (0, 39, 11, 105, 44, 64, 22, 8, 104, 52, 121, 0)
s = 144: (0, 33, 13, 92, 61, 43, 20, 12, 66, 30, 80, 0)
s = 145: (0, 33, 11, 69, 68, 36, 23, 9, 89, 59, 92, 0)
s = 146: (0, 57, 17, 57, 68, 52, 24, 9, 66, 52, 127, 0)
s = 147: (0, 48, 15, 53, 39, 63, 27, 9, 86, 54, 92, 0)
s = 148: (0, 32, 16, 126, 54, 31, 13, 13, 107, 43, 85, 0)
s = 149: (0, 53, 15, 97, 31, 62, 19, 12, 102, 52, 162, 0)
s = 150: (0, 34, 19, 108, 31, 51, 15, 12, 60, 81, 77, 0)
s = 151: (0, 72, 19, 108, 55, 51, 14, 10, 80, 57, 69, 0)
s = 152: (0, 49, 17, 110, 78, 59, 17, 8, 76, 53, 125, 0)
s = 153: (0, 60, 17, 78, 38, 45, 13, 7, 122, 47, 164, 0)
s = 154: (0, 76, 9, 92, 41, 49, 24, 14, 62, 55, 141, 0)
s = 155: (0, 60, 9, 100, 61, 39, 18, 8, 75, 46, 91, 0)
s = 156: (0, 46, 14, 104, 80, 61, 11, 14, 97, 33, 117, 0)
s = 157: (0, 36, 9, 142, 53, 45, 12, 9, 95, 75, 83, 0)
s = 158: (0, 39, 8, 83, 36, 30, 19, 11, 58, 37, 73, 0)
s = 159: (0, 70, 18, 72, 67, 84, 10, 15, 126, 42, 114, 0)
s = 160: (0, 42, 12, 57, 29, 57, 21, 9, 80, 48, 153, 0)
s = 161: (0, 44, 24, 122, 43, 40, 21, 13, 74, 51, 150, 0)
s = 162: (0, 54, 12, 68, 64, 36, 20, 9, 73, 72, 76, 0)
s = 163: (0, 64, 22, 122, 55, 37, 24, 10, 125, 39, 110, 0)
s = 164: (0, 34, 10, 88, 56, 52, 23, 8, 51, 73, 79, 0)
s = 165: (0, 43, 16, 117, 44, 43, 18, 11, 126, 52, 93, 0)
s = 166: (0, 31, 18, 119, 37, 54, 18, 7, 87, 44, 74, 0)
s = 167: (0, 66, 12, 142, 50, 30, 11, 10, 100, 54, 142, 0)
s = 168: (0, 42, 9, 111, 41, 59, 20, 9, 106, 82, 115, 0)
s = 169: (0, 54, 11, 164, 70, 40, 20, 11, 69, 50, 148, 0)
s = 170: (0, 65, 12, 118, 65, 52, 26, 15, 116, 36, 119, 0)
s = 171: (0, 38, 8, 94, 57, 37, 22, 7, 91, 85, 131, 0)
s = 172: (0, 53, 16, 117, 67, 70, 20, 13, 97, 48, 112, 0)
s = 173: (0, 50, 11, 53, 87, 58, 11, 9, 101, 51, 83, 0)
s = 174: (0, 39, 15, 171, 37, 52, 12, 13, 94, 42, 99, 0)
s = 175: (0, 41, 17, 123, 80, 60, 15, 7, 96, 75, 156, 0)
s = 176: (0, 35, 15, 138, 43, 29, 16, 9, 81, 44, 88, 0)
s = 177: (0, 40, 14, 135, 78, 86, 23, 9, 86, 74, 100, 0)
s = 178: (0, 94, 10, 73, 58, 39, 14, 16, 89, 57, 94, 0)
s = 179: (0, 69, 11, 101, 63, 53, 18, 12, 74, 32, 123, 0)
s = 180: (0, 33, 17, 94, 67, 46, 16, 9, 93, 42, 109, 0)
s = 181: (0, 58, 16, 106, 42, 35, 16, 16, 107, 55, 69, 0)
s = 182: (0, 69, 10, 115, 42, 56, 18, 12, 111, 35, 96, 0)
s = 183: (0, 43, 10, 135, 46, 38, 24, 16, 97, 33, 76, 0)
s = 184: (0, 90, 11, 72, 82, 52, 15, 9, 93, 55, 76, 0)
s = 185: (0, 43, 10, 82, 77, 58, 18, 13, 84, 56, 98, 0)
s = 186: (0, 57, 13, 88, 37, 59, 20, 9, 53, 57, 91, 0)
s = 187: (0, 39, 12, 63, 30, 49, 21, 9, 53, 36, 75, 0)
s = 188: (0, 61, 9, 107, 76, 36, 21, 11, 60, 38, 134, 0)
s = 189: (0, 34, 13, 76, 42, 37, 20, 7, 74, 43, 83, 0)
s = 190: (0, 34, 14, 82, 63, 38, 11, 11, 163, 53, 184, 0)
s = 191: (0, 72, 12, 72, 41, 56, 17, 10, 62, 40, 114, 0)
s = 192: (0, 57, 20, 105, 47, 47, 14, 7, 71, 49, 88, 0)
s = 193: (0, 45, 17, 98, 30, 57, 22, 11, 111, 57, 86, 0)
s = 194: (0, 34, 10, 62, 80, 53, 13, 17, 93, 57, 151, 0)
s = 195: (0, 73, 12, 71, 55, 37, 23, 10, 121, 61, 70, 0)
s = 196: (0, 39, 19, 84, 59, 42, 16, 11, 110, 36, 113, 0)
s = 197: (0, 39, 17, 115, 81, 38, 11, 10, 91, 67, 107, 0)
s = 198: (0, 44, 16, 110, 77, 44, 12, 13, 86, 40, 117, 0)
s = 199: (0, 76, 14, 88, 105, 37, 12, 18, 93, 75, 112, 0)
s = 200: (0, 35, 9, 82, 54, 31, 11, 14, 72, 56, 90, 0)
------------------------------------------------------------------------
RESOURCE k = 2
s = 1: (0, 92, 15, 97, 25, 25, 9, 23, 82, 98, 107, 0)
s = 2: (0, 80, 10, 57, 20, 26, 11, 14, 151, 97, 186, 0)
s = 3: (0, 100, 11, 138, 28, 44, 13, 15, 56, 89, 105, 0)
s = 4: (0, 77, 11, 132, 19, 24, 10, 12, 51, 62, 199, 0)
s = 5: (0, 120, 10, 103, 30, 24, 8, 29, 59, 67, 69, 0)
s = 6: (0, 106, 12, 67, 22, 31, 14, 18, 52, 63, 81, 0)
s = 7: (0, 76, 16, 97, 15, 23, 11, 17, 74, 61, 75, 0)
s = 8: (0, 50, 16, 124, 16, 33, 12, 21, 71, 66, 166, 0)
s = 9: (0, 121, 10, 87, 19, 26, 10, 14, 78, 51, 149, 0)
s = 10: (0, 70, 12, 109, 41, 27, 9, 30, 122, 69, 111, 0)
s = 11: (0, 64, 18, 148, 36, 19, 15, 14, 42, 63, 142, 0)
s = 12: (0, 57, 23, 130, 36, 16, 8, 23, 59, 67, 95, 0)
s = 13: (0, 93, 13, 101, 29, 26, 12, 17, 46, 78, 171, 0)
s = 14: (0, 66, 16, 82, 24, 38, 7, 20, 76, 52, 144, 0)
s = 15: (0, 96, 15, 113, 28, 27, 14, 15, 61, 55, 122, 0)
s = 16: (0, 133, 14, 143, 27, 39, 12, 24, 63, 51, 122, 0)
s = 17: (0, 89, 14, 101, 29, 18, 13, 23, 62, 61, 96, 0)
s = 18: (0, 67, 9, 104, 25, 29, 9, 18, 68, 59, 93, 0)
s = 19: (0, 129, 9, 63, 27, 35, 12, 30, 71, 49, 91, 0)
s = 20: (0, 124, 13, 80, 20, 34, 13, 10, 88, 68, 126, 0)
s = 21: (0, 76, 13, 64, 21, 27, 8, 23, 55, 73, 158, 0)
s = 22: (0, 86, 9, 103, 23, 30, 11, 16, 79, 59, 66, 0)
s = 23: (0, 92, 15, 142, 28, 28, 8, 13, 51, 67, 126, 0)
s = 24: (0, 107, 21, 73, 23, 31, 15, 11, 71, 38, 154, 0)
s = 25: (0, 114, 12, 97, 16, 21, 19, 12, 140, 67, 108, 0)
s = 26: (0, 52, 12, 62, 18, 16, 9, 13, 78, 123, 166, 0)
s = 27: (0, 57, 12, 100, 30, 15, 9, 11, 115, 67, 134, 0)
s = 28: (0, 82, 19, 141, 31, 27, 10, 27, 65, 58, 119, 0)
s = 29: (0, 66, 11, 136, 17, 23, 13, 27, 74, 73, 175, 0)
s = 30: (0, 65, 20, 93, 26, 37, 12, 23, 63, 60, 107, 0)
s = 31: (0, 92, 11, 183, 27, 16, 13, 13, 67, 78, 74, 0)
s = 32: (0, 77, 8, 121, 19, 30, 7, 12, 109, 64, 114, 0)
s = 33: (0, 81, 10, 101, 18, 19, 8, 19, 111, 126, 129, 0)
s = 34: (0, 67, 11, 84, 19, 20, 6, 19, 67, 45, 130, 0)
s = 35: (0, 58, 8, 114, 33, 34, 8, 23, 88, 46, 71, 0)
s = 36: (0, 92, 15, 78, 25, 33, 13, 14, 48, 49, 185, 0)
s = 37: (0, 74, 9, 143, 15, 22, 12, 15, 110, 48, 116, 0)
s = 38: (0, 94, 8, 98, 21, 39, 12, 14, 53, 65, 72, 0)
s = 39: (0, 66, 11, 72, 40, 25, 11, 17, 54, 63, 94, 0)
s = 40: (0, 56, 14, 147, 25, 18, 8, 14, 89, 77, 153, 0)
s = 41: (0, 46, 12, 99, 15, 36, 6, 23, 42, 59, 82, 0)
s = 42: (0, 59, 9, 77, 24, 26, 7, 18, 102, 67, 117, 0)
s = 43: (0, 68, 19, 101, 20, 28, 12, 16, 57, 89, 159, 0)
s = 44: (0, 56, 15, 83, 32, 19, 8, 13, 69, 71, 148, 0)
s = 45: (0, 139, 12, 82, 36, 33, 11, 12, 91, 95, 189, 0)
s = 46: (0, 88, 9, 110, 25, 22, 10, 22, 63, 45, 109, 0)
s = 47: (0, 62, 13, 97, 23, 36, 14, 19, 48, 37, 184, 0)
s = 48: (0, 107, 15, 166, 23, 26, 10, 19, 79, 98, 106, 0)
s = 49: (0, 130, 15, 94, 27, 45, 7, 26, 81, 57, 74, 0)
s = 50: (0, 68, 10, 136, 15, 27, 7, 22, 60, 61, 83, 0)
s = 51: (0, 65, 19, 143, 41, 41, 10, 14, 56, 39, 145, 0)
s = 52: (0, 122, 11, 55, 38, 38, 13, 11, 96, 55, 125, 0)
s = 53: (0, 129, 16, 119, 27, 37, 11, 24, 52, 42, 129, 0)
s = 54: (0, 58, 10, 117, 31, 32, 9, 20, 48, 77, 133, 0)
s = 55: (0, 82, 8, 130, 18, 29, 13, 12, 52, 66, 161, 0)
s = 56: (0, 56, 12, 87, 19, 22, 18, 19, 54, 81, 215, 0)
s = 57: (0, 88, 11, 112, 31, 23, 9, 27, 75, 46, 84, 0)
s = 58: (0, 85, 10, 107, 23, 36, 13, 11, 86, 54, 85, 0)
s = 59: (0, 67, 14, 87, 22, 19, 6, 23, 64, 53, 111, 0)
s = 60: (0, 88, 11, 110, 32, 22, 10, 31, 53, 48, 86, 0)
s = 61: (0, 112, 18, 109, 17, 39, 8, 18, 60, 55, 107, 0)
s = 62: (0, 62, 14, 59, 29, 28, 12, 25, 59, 100, 100, 0)
s = 63: (0, 75, 20, 144, 28, 16, 10, 18, 68, 65, 100, 0)
s = 64: (0, 55, 12, 95, 19, 20, 10, 32, 116, 59, 238, 0)
s = 65: (0, 123, 7, 129, 27, 29, 10, 21, 83, 67, 145, 0)
s = 66: (0, 152, 9, 195, 19, 27, 7, 16, 105, 94, 105, 0)
s = 67: (0, 112, 16, 70, 27, 22, 11, 18, 78, 82, 160, 0)
s = 68: (0, 74, 11, 97, 14, 28, 18, 16, 97, 71, 96, 0)
s = 69: (0, 98, 11, 77, 31, 24, 11, 26, 55, 75, 145, 0)
s = 70: (0, 66, 12, 123, 40, 17, 10, 11, 91, 61, 160, 0)
s = 71: (0, 133, 15, 135, 35, 34, 10, 14, 48, 48, 227, 0)
s = 72: (0, 88, 24, 89, 19, 22, 15, 20, 65, 63, 157, 0)
s = 73: (0, 62, 17, 86, 17, 27, 8, 20, 61, 44, 139, 0)
s = 74: (0, 84, 9, 126, 23, 16, 9, 19, 61, 101, 163, 0)
s = 75: (0, 74, 10, 170, 34, 27, 9, 12, 64, 85, 67, 0)
s = 76: (0, 119, 12, 76, 22, 19, 15, 28, 53, 66, 121, 0)
s = 77: (0, 98, 17, 83, 38, 19, 8, 11, 90, 67, 101, 0)
s = 78: (0, 131, 13, 98, 15, 31, 7, 18, 95, 73, 179, 0)
s = 79: (0, 90, 8, 121, 16, 27, 9, 10, 93, 78, 95, 0)
s = 80: (0, 75, 12, 72, 21, 40, 8, 15, 97, 43, 88, 0)
s = 81: (0, 96, 14, 85, 16, 31, 8, 16, 57, 68, 151, 0)
s = 82: (0, 78, 10, 61, 25, 31, 18, 26, 85, 42, 177, 0)
s = 83: (0, 62, 8, 120, 25, 20, 10, 16, 45, 48, 101, 0)
s = 84: (0, 89, 10, 71, 26, 20, 6, 13, 66, 56, 123, 0)
s = 85: (0, 65, 15, 121, 24, 19, 10, 14, 101, 56, 87, 0)
s = 86: (0, 93, 16, 98, 22, 25, 8, 26, 72, 68, 84, 0)
s = 87: (0, 103, 8, 138, 23, 26, 9, 22, 80, 51, 144, 0)
s = 88: (0, 135, 10, 150, 27, 29, 10, 24, 109, 96, 100, 0)
s = 89: (0, 130, 12, 124, 17, 39, 6, 14, 66, 56, 105, 0)
s = 90: (0, 94, 12, 106, 30, 20, 17, 21, 47, 77, 118, 0)
s = 91: (0, 101, 15, 150, 19, 23, 10, 16, 96, 62, 152, 0)
s = 92: (0, 88, 9, 84, 24, 24, 8, 22, 67, 88, 125, 0)
s = 93: (0, 96, 9, 116, 22, 28, 14, 16, 60, 36, 99, 0)
s = 94: (0, 66, 8, 77, 26, 19, 13, 29, 117, 79, 111, 0)
s = 95: (0, 89, 14, 115, 36, 22, 12, 15, 57, 48, 129, 0)
s = 96: (0, 58, 18, 95, 38, 22, 15, 14, 72, 39, 95, 0)
s = 97: (0, 66, 9, 140, 17, 24, 7, 13, 75, 77, 149, 0)
s = 98: (0, 56, 14, 123, 14, 22, 12, 12, 49, 51, 181, 0)
s = 99: (0, 69, 9, 160, 22, 36, 7, 12, 75, 106, 150, 0)
s = 100: (0, 85, 15, 108, 28, 20, 11, 14, 60, 55, 80, 0)
s = 101: (0, 76, 15, 73, 19, 17, 8, 21, 74, 55, 107, 0)
s = 102: (0, 51, 14, 112, 21, 28, 16, 24, 69, 65, 105, 0)
s = 103: (0, 69, 11, 121, 19, 31, 6, 21, 75, 62, 113, 0)
s = 104: (0, 97, 9, 115, 22, 39, 19, 18, 110, 82, 114, 0)
s = 105: (0, 48, 11, 121, 23, 16, 7, 29, 67, 61, 213, 0)
s = 106: (0, 54, 14, 65, 13, 17, 8, 18, 68, 60, 118, 0)
s = 107: (0, 117, 13, 130, 33, 26, 7, 12, 88, 49, 90, 0)
s = 108: (0, 85, 13, 83, 23, 27, 12, 23, 81, 69, 110, 0)
s = 109: (0, 141, 14, 104, 25, 25, 11, 22, 48, 88, 106, 0)
s = 110: (0, 86, 14, 97, 26, 26, 14, 16, 112, 72, 143, 0)
s = 111: (0, 97, 11, 80, 28, 28, 11, 18, 55, 44, 92, 0)
s = 112: (0, 67, 15, 106, 28, 35, 14, 26, 48, 83, 134, 0)
s = 113: (0, 67, 9, 109, 23, 39, 12, 22, 120, 69, 188, 0)
s = 114: (0, 60, 11, 127, 25, 24, 12, 14, 70, 83, 145, 0)
s = 115: (0, 61, 14, 71, 35, 31, 10, 14, 94, 73, 98, 0)
s = 116: (0, 85, 14, 78, 19, 36, 9, 16, 83, 74, 89, 0)
s = 117: (0, 100, 14, 73, 16, 34, 10, 17, 63, 54, 99, 0)
s = 118: (0, 71, 17, 129, 30, 31, 13, 11, 106, 34, 101, 0)
s = 119: (0, 62, 13, 136, 27, 23, 11, 24, 57, 43, 204, 0)
s = 120: (0, 83, 9, 114, 20, 21, 9, 18, 65, 57, 126, 0)
s = 121: (0, 94, 13, 111, 21, 19, 10, 21, 140, 59, 202, 0)
s = 122: (0, 75, 16, 109, 25, 25, 13, 19, 46, 61, 147, 0)
s = 123: (0, 59, 10, 120, 18, 25, 19, 12, 75, 93, 133, 0)
s = 124: (0, 104, 10, 137, 28, 20, 11, 15, 110, 54, 120, 0)
s = 125: (0, 108, 9, 194, 34, 37, 13, 24, 65, 85, 128, 0)
s = 126: (0, 48, 17, 91, 30, 37, 14, 14, 50, 75, 142, 0)
s = 127: (0, 81, 9, 104, 21, 25, 11, 24, 96, 44, 94, 0)
s = 128: (0, 106, 14, 123, 16, 27, 10, 14, 78, 72, 179, 0)
s = 129: (0, 74, 10, 163, 40, 29, 11, 11, 82, 59, 168, 0)
s = 130: (0, 87, 14, 92, 21, 23, 8, 23, 55, 70, 106, 0)
s = 131: (0, 117, 17, 118, 20, 27, 8, 16, 67, 68, 139, 0)
s = 132: (0, 55, 15, 80, 26, 19, 11, 20, 86, 78, 99, 0)
s = 133: (0, 88, 13, 87, 35, 34, 8, 12, 49, 46, 119, 0)
s = 134: (0, 121, 15, 120, 22, 46, 9, 29, 89, 64, 153, 0)
s = 135: (0, 104, 12, 72, 19, 36, 10, 29, 58, 72, 174, 0)
s = 136: (0, 94, 22, 141, 37, 19, 9, 20, 67, 51, 143, 0)
s = 137: (0, 121, 11, 85, 40, 25, 10, 12, 57, 44, 128, 0)
s = 138: (0, 91, 14, 142, 19, 30, 8, 12, 102, 35, 130, 0)
s = 139: (0, 79, 17, 119, 30, 24, 7, 35, 142, 49, 182, 0)
s = 140: (0, 84, 13, 94, 27, 29, 12, 12, 86, 61, 168, 0)
s = 141: (0, 45, 15, 152, 43, 32, 9, 27, 65, 50, 81, 0)
s = 142: (0, 64, 10, 94, 16, 29, 8, 12, 79, 52, 124, 0)
s = 143: (0, 66, 10, 114, 19, 34, 14, 15, 91, 63, 149, 0)
s = 144: (0, 56, 12, 100, 26, 23, 12, 21, 57, 36, 99, 0)
s = 145: (0, 55, 10, 75, 29, 19, 14, 15, 77, 72, 113, 0)
s = 146: (0, 97, 16, 62, 29, 28, 15, 16, 58, 63, 157, 0)
s = 147: (0, 81, 14, 57, 17, 34, 17, 17, 75, 66, 113, 0)
s = 148: (0, 54, 15, 136, 23, 16, 8, 23, 92, 53, 105, 0)
s = 149: (0, 90, 14, 105, 13, 33, 12, 21, 89, 63, 199, 0)
s = 150: (0, 58, 17, 117, 13, 27, 10, 21, 52, 100, 95, 0)
s = 151: (0, 122, 18, 117, 23, 27, 9, 18, 69, 70, 85, 0)
s = 152: (0, 82, 15, 120, 33, 32, 11, 14, 66, 65, 154, 0)
s = 153: (0, 101, 15, 84, 16, 24, 8, 12, 105, 57, 202, 0)
s = 154: (0, 129, 9, 100, 17, 26, 15, 25, 53, 68, 174, 0)
s = 155: (0, 102, 8, 108, 26, 21, 12, 13, 65, 57, 111, 0)
s = 156: (0, 78, 13, 113, 34, 32, 7, 25, 84, 40, 144, 0)
s = 157: (0, 60, 8, 153, 23, 24, 8, 16, 82, 93, 102, 0)
s = 158: (0, 67, 8, 90, 15, 16, 12, 20, 50, 45, 90, 0)
s = 159: (0, 119, 16, 78, 28, 45, 7, 26, 109, 52, 140, 0)
s = 160: (0, 72, 11, 61, 13, 30, 13, 16, 69, 58, 188, 0)
s = 161: (0, 74, 22, 132, 18, 21, 14, 22, 64, 63, 185, 0)
s = 162: (0, 91, 11, 74, 27, 20, 13, 16, 63, 88, 93, 0)
s = 163: (0, 109, 20, 132, 23, 20, 15, 17, 109, 47, 135, 0)
s = 164: (0, 58, 9, 96, 24, 28, 14, 14, 44, 90, 97, 0)
s = 165: (0, 72, 14, 126, 19, 23, 12, 19, 109, 64, 114, 0)
s = 166: (0, 52, 17, 128, 16, 29, 12, 13, 75, 54, 91, 0)
s = 167: (0, 112, 11, 154, 21, 16, 7, 18, 87, 66, 175, 0)
s = 168: (0, 70, 9, 120, 17, 32, 13, 16, 92, 101, 141, 0)
s = 169: (0, 91, 10, 177, 30, 21, 12, 20, 60, 61, 183, 0)
s = 170: (0, 109, 11, 128, 28, 28, 17, 26, 100, 44, 147, 0)
s = 171: (0, 65, 7, 102, 24, 20, 14, 13, 79, 104, 161, 0)
s = 172: (0, 91, 15, 126, 28, 37, 13, 22, 84, 59, 138, 0)
s = 173: (0, 84, 10, 58, 37, 31, 7, 15, 88, 63, 102, 0)
s = 174: (0, 66, 14, 186, 16, 28, 8, 23, 82, 52, 122, 0)
s = 175: (0, 69, 16, 133, 34, 32, 10, 11, 83, 93, 191, 0)
s = 176: (0, 59, 14, 149, 18, 16, 10, 16, 70, 54, 108, 0)
s = 177: (0, 67, 13, 146, 33, 46, 15, 16, 74, 91, 123, 0)
s = 178: (0, 160, 9, 80, 25, 21, 9, 28, 77, 70, 115, 0)
s = 179: (0, 117, 10, 109, 27, 28, 11, 22, 64, 40, 151, 0)
s = 180: (0, 56, 16, 102, 29, 25, 10, 16, 81, 52, 134, 0)
s = 181: (0, 98, 15, 114, 18, 19, 10, 28, 92, 68, 85, 0)
s = 182: (0, 117, 9, 124, 18, 30, 11, 21, 97, 42, 118, 0)
s = 183: (0, 72, 9, 146, 20, 21, 15, 28, 85, 40, 94, 0)
s = 184: (0, 152, 10, 78, 35, 28, 10, 15, 80, 68, 93, 0)
s = 185: (0, 73, 9, 88, 33, 31, 11, 22, 73, 69, 120, 0)
s = 186: (0, 96, 12, 96, 16, 32, 12, 16, 46, 70, 111, 0)
s = 187: (0, 66, 11, 69, 13, 26, 14, 16, 46, 45, 92, 0)
s = 188: (0, 104, 8, 116, 32, 19, 14, 19, 52, 47, 165, 0)
s = 189: (0, 57, 12, 83, 18, 20, 13, 12, 64, 53, 102, 0)
s = 190: (0, 57, 13, 88, 27, 20, 7, 20, 141, 65, 227, 0)
s = 191: (0, 121, 11, 77, 17, 30, 11, 17, 54, 49, 140, 0)
s = 192: (0, 96, 19, 113, 20, 25, 9, 12, 62, 60, 108, 0)
s = 193: (0, 75, 15, 106, 13, 30, 14, 19, 96, 69, 106, 0)
s = 194: (0, 57, 9, 67, 34, 28, 8, 31, 81, 70, 186, 0)
s = 195: (0, 123, 11, 77, 23, 20, 15, 18, 105, 75, 87, 0)
s = 196: (0, 67, 18, 91, 25, 22, 10, 19, 95, 45, 139, 0)
s = 197: (0, 66, 16, 125, 35, 20, 7, 17, 79, 83, 132, 0)
s = 198: (0, 74, 14, 119, 33, 24, 8, 24, 75, 49, 144, 0)
s = 199: (0, 130, 13, 96, 44, 20, 8, 32, 81, 92, 138, 0)
s = 200: (0, 59, 8, 89, 23, 17, 7, 24, 63, 69, 110, 0)
************************************************************************
ES/LS-VALUES:
jobnr.   ES(i)    LS(i)
------------------------------------------------------------------------
  0        0        0
  1        0       41
  2        0       51
  3        0       42
  4        9       51
  5        2       53
  6       15       57
  7        9       64
  8       15       62
  9       14       66
 10       16       59
 11       30       74
************************************************************************
BIG-M-VALUES:
M1 = 58, M2 = 431
************************************************************************
